(set-logic QF_UF)
(declare-fun A0 () Bool)
(declare-fun A1 () Bool)
(declare-fun A2 () Bool)
(declare-fun A3 () Bool)
(declare-fun A4 () Bool)
(declare-fun A5 () Bool)
(declare-fun A6 () Bool)
(declare-fun A7 () Bool)
(declare-fun A8 () Bool)
(declare-fun A9 () Bool)
(declare-fun A10 () Bool)
(declare-fun A11 () Bool)
(declare-fun A12 () Bool)
(declare-fun A13 () Bool)
(declare-fun A14 () Bool)
(declare-fun A15 () Bool)
(declare-fun A16 () Bool)
(declare-fun A17 () Bool)
(declare-fun A18 () Bool)
(declare-fun A19 () Bool)
(declare-fun A20 () Bool)
(declare-fun A21 () Bool)
(declare-fun A22 () Bool)
(declare-fun A23 () Bool)
(declare-fun A24 () Bool)
(assert (let ((.def_0 (not A4))) (let ((.def_1 (or A8 .def_0))) (let ((.def_2 (not .def_1))) (let ((.def_3 (not A18))) (let ((.def_4 (not A10))) (let ((.def_5 (and .def_4 .def_3))) (let ((.def_6 (not .def_5))) (let ((.def_7 (and .def_6 .def_2))) (let ((.def_8 (not A19))) (let ((.def_9 (not A5))) (let ((.def_10 (and .def_9 .def_8))) (let ((.def_11 (not .def_10))) (let ((.def_12 (not A7))) (let ((.def_13 (and .def_12 A7))) (let ((.def_14 (or .def_13 .def_11))) (let ((.def_15 (not .def_14))) (let ((.def_16 (and .def_15 .def_7))) (let ((.def_17 (or A11 A20))) (let ((.def_18 (not A14))) (let ((.def_19 (or .def_8 .def_18))) (let ((.def_20 (and .def_19 .def_17))) (let ((.def_21 (not .def_20))) (let ((.def_22 (not A6))) (let ((.def_23 (not A2))) (let ((.def_24 (or .def_23 .def_22))) (let ((.def_25 (not .def_24))) (let ((.def_26 (not A13))) (let ((.def_27 (not A11))) (let ((.def_28 (and .def_27 .def_26))) (let ((.def_29 (not .def_28))) (let ((.def_30 (or .def_29 .def_25))) (let ((.def_31 (= .def_30 .def_21))) (let ((.def_32 (or .def_31 .def_16))) (let ((.def_33 (not .def_32))) (let ((.def_34 (not A1))) (let ((.def_35 (or A5 .def_34))) (let ((.def_36 (and .def_34 A13))) (let ((.def_37 (not .def_36))) (let ((.def_38 (and .def_37 .def_35))) (let ((.def_39 (and .def_26 A11))) (let ((.def_40 (not .def_39))) (let ((.def_41 (or A19 A12))) (let ((.def_42 (or .def_41 .def_40))) (let ((.def_43 (and .def_42 .def_38))) (let ((.def_44 (and A13 .def_27))) (let ((.def_45 (not .def_44))) (let ((.def_46 (not A20))) (let ((.def_47 (= A4 .def_46))) (let ((.def_48 (and .def_47 .def_45))) (let ((.def_49 (not A23))) (let ((.def_50 (and .def_49 A16))) (let ((.def_51 (not .def_50))) (let ((.def_52 (or A22 A17))) (let ((.def_53 (or .def_52 .def_51))) (let ((.def_54 (not .def_53))) (let ((.def_55 (and .def_54 .def_48))) (let ((.def_56 (not .def_55))) (let ((.def_57 (and .def_56 .def_43))) (let ((.def_58 (not .def_57))) (let ((.def_59 (or .def_58 .def_33))) (let ((.def_60 (not .def_59))) (let ((.def_61 (and .def_9 A7))) (let ((.def_62 (= A16 A15))) (let ((.def_63 (not .def_62))) (let ((.def_64 (and .def_63 .def_61))) (let ((.def_65 (not A8))) (let ((.def_66 (or A4 .def_65))) (let ((.def_67 (not .def_66))) (let ((.def_68 (and .def_18 A11))) (let ((.def_69 (or .def_68 .def_67))) (let ((.def_70 (not .def_69))) (let ((.def_71 (or .def_70 .def_64))) (let ((.def_72 (not .def_71))) (let ((.def_73 (not A16))) (let ((.def_74 (= .def_22 .def_73))) (let ((.def_75 (or A22 A15))) (let ((.def_76 (not .def_75))) (let ((.def_77 (= .def_76 .def_74))) (let ((.def_78 (not .def_77))) (let ((.def_79 (not A9))) (let ((.def_80 (or .def_79 A4))) (let ((.def_81 (not .def_80))) (let ((.def_82 (or A10 .def_23))) (let ((.def_83 (not .def_82))) (let ((.def_84 (or .def_83 .def_81))) (let ((.def_85 (and .def_84 .def_78))) (let ((.def_86 (not .def_85))) (let ((.def_87 (and .def_86 .def_72))) (let ((.def_88 (and .def_79 A13))) (let ((.def_89 (not A21))) (let ((.def_90 (and .def_89 .def_4))) (let ((.def_91 (not .def_90))) (let ((.def_92 (and .def_91 .def_88))) (let ((.def_93 (not .def_92))) (let ((.def_94 (not A24))) (let ((.def_95 (and A13 .def_94))) (let ((.def_96 (not .def_95))) (let ((.def_97 (and .def_94 .def_65))) (let ((.def_98 (not .def_97))) (let ((.def_99 (or .def_98 .def_96))) (let ((.def_100 (not .def_99))) (let ((.def_101 (or .def_100 .def_93))) (let ((.def_102 (not .def_101))) (let ((.def_103 (= .def_3 .def_94))) (let ((.def_104 (not .def_103))) (let ((.def_105 (or A17 A7))) (let ((.def_106 (or .def_105 .def_104))) (let ((.def_107 (or .def_8 A12))) (let ((.def_108 (not .def_107))) (let ((.def_109 (not A12))) (let ((.def_110 (or .def_109 .def_109))) (let ((.def_111 (or .def_110 .def_108))) (let ((.def_112 (and .def_111 .def_106))) (let ((.def_113 (not .def_112))) (let ((.def_114 (or .def_113 .def_102))) (let ((.def_115 (not .def_114))) (let ((.def_116 (and .def_115 .def_87))) (let ((.def_117 (or .def_116 .def_60))) (let ((.def_118 (not .def_117))) (let ((.def_119 (or .def_46 A18))) (let ((.def_120 (not .def_119))) (let ((.def_121 (or A15 A12))) (let ((.def_122 (or .def_121 .def_120))) (let ((.def_123 (and .def_8 A23))) (let ((.def_124 (not .def_123))) (let ((.def_125 (not A3))) (let ((.def_126 (and .def_46 .def_125))) (let ((.def_127 (and .def_126 .def_124))) (let ((.def_128 (and .def_127 .def_122))) (let ((.def_129 (or A0 A22))) (let ((.def_130 (not .def_129))) (let ((.def_131 (and A4 .def_0))) (let ((.def_132 (= .def_131 .def_130))) (let ((.def_133 (or A5 A20))) (let ((.def_134 (not .def_133))) (let ((.def_135 (and .def_73 .def_125))) (let ((.def_136 (or .def_135 .def_134))) (let ((.def_137 (not .def_136))) (let ((.def_138 (or .def_137 .def_132))) (let ((.def_139 (not .def_138))) (let ((.def_140 (and .def_139 .def_128))) (let ((.def_141 (not .def_140))) (let ((.def_142 (or .def_65 A0))) (let ((.def_143 (= .def_12 A14))) (let ((.def_144 (not .def_143))) (let ((.def_145 (and .def_144 .def_142))) (let ((.def_146 (and A13 A15))) (let ((.def_147 (and A18 .def_4))) (let ((.def_148 (or .def_147 .def_146))) (let ((.def_149 (or .def_148 .def_145))) (let ((.def_150 (not .def_149))) (let ((.def_151 (= .def_46 .def_49))) (let ((.def_152 (not .def_151))) (let ((.def_153 (and .def_26 A18))) (let ((.def_154 (= .def_153 .def_152))) (let ((.def_155 (not .def_154))) (let ((.def_156 (not A17))) (let ((.def_157 (and A19 .def_156))) (let ((.def_158 (or .def_34 .def_26))) (let ((.def_159 (or .def_158 .def_157))) (let ((.def_160 (and .def_159 .def_155))) (let ((.def_161 (or .def_160 .def_150))) (let ((.def_162 (not .def_161))) (let ((.def_163 (or .def_162 .def_141))) (let ((.def_164 (and .def_34 .def_3))) (let ((.def_165 (not .def_164))) (let ((.def_166 (not A15))) (let ((.def_167 (and .def_26 .def_166))) (let ((.def_168 (not .def_167))) (let ((.def_169 (or .def_168 .def_165))) (let ((.def_170 (not .def_169))) (let ((.def_171 (and A0 .def_4))) (let ((.def_172 (not .def_171))) (let ((.def_173 (or A11 A5))) (let ((.def_174 (and .def_173 .def_172))) (let ((.def_175 (not .def_174))) (let ((.def_176 (= .def_175 .def_170))) (let ((.def_177 (not .def_176))) (let ((.def_178 (or .def_3 A15))) (let ((.def_179 (or A7 A24))) (let ((.def_180 (and .def_179 .def_178))) (let ((.def_181 (not .def_180))) (let ((.def_182 (or A18 A0))) (let ((.def_183 (= A24 A3))) (let ((.def_184 (not .def_183))) (let ((.def_185 (= .def_184 .def_182))) (let ((.def_186 (not .def_185))) (let ((.def_187 (and .def_186 .def_181))) (let ((.def_188 (and .def_187 .def_177))) (let ((.def_189 (or .def_65 .def_23))) (let ((.def_190 (and .def_4 A12))) (let ((.def_191 (or .def_190 .def_189))) (let ((.def_192 (= .def_94 A13))) (let ((.def_193 (not .def_192))) (let ((.def_194 (not A22))) (let ((.def_195 (and A19 .def_194))) (let ((.def_196 (not .def_195))) (let ((.def_197 (or .def_196 .def_193))) (let ((.def_198 (and .def_197 .def_191))) (let ((.def_199 (not .def_198))) (let ((.def_200 (and .def_166 .def_3))) (let ((.def_201 (not .def_200))) (let ((.def_202 (or A2 A0))) (let ((.def_203 (or .def_202 .def_201))) (let ((.def_204 (or .def_4 A18))) (let ((.def_205 (not .def_204))) (let ((.def_206 (not A0))) (let ((.def_207 (or A22 .def_206))) (let ((.def_208 (not .def_207))) (let ((.def_209 (or .def_208 .def_205))) (let ((.def_210 (not .def_209))) (let ((.def_211 (or .def_210 .def_203))) (let ((.def_212 (not .def_211))) (let ((.def_213 (and .def_212 .def_199))) (let ((.def_214 (and .def_213 .def_188))) (let ((.def_215 (or .def_214 .def_163))) (let ((.def_216 (not .def_215))) (let ((.def_217 (or .def_216 .def_118))) (let ((.def_218 (and .def_156 .def_73))) (let ((.def_219 (not .def_218))) (let ((.def_220 (or .def_65 .def_194))) (let ((.def_221 (and .def_220 .def_219))) (let ((.def_222 (= A15 .def_46))) (let ((.def_223 (not .def_222))) (let ((.def_224 (or .def_79 A9))) (let ((.def_225 (= .def_224 .def_223))) (let ((.def_226 (not .def_225))) (let ((.def_227 (= .def_226 .def_221))) (let ((.def_228 (not .def_227))) (let ((.def_229 (or .def_0 A18))) (let ((.def_230 (or .def_166 .def_4))) (let ((.def_231 (and .def_230 .def_229))) (let ((.def_232 (not .def_231))) (let ((.def_233 (and .def_73 .def_22))) (let ((.def_234 (not .def_233))) (let ((.def_235 (or A8 .def_206))) (let ((.def_236 (and .def_235 .def_234))) (let ((.def_237 (not .def_236))) (let ((.def_238 (or .def_237 .def_232))) (let ((.def_239 (not .def_238))) (let ((.def_240 (and .def_239 .def_228))) (let ((.def_241 (not .def_240))) (let ((.def_242 (or A3 A17))) (let ((.def_243 (not .def_242))) (let ((.def_244 (or A20 .def_206))) (let ((.def_245 (not .def_244))) (let ((.def_246 (and .def_245 .def_243))) (let ((.def_247 (not .def_246))) (let ((.def_248 (= A22 A5))) (let ((.def_249 (not .def_248))) (let ((.def_250 (or .def_22 .def_23))) (let ((.def_251 (and .def_250 .def_249))) (let ((.def_252 (or .def_251 .def_247))) (let ((.def_253 (or A1 .def_4))) (let ((.def_254 (or A4 .def_34))) (let ((.def_255 (not .def_254))) (let ((.def_256 (and .def_255 .def_253))) (let ((.def_257 (not .def_256))) (let ((.def_258 (and .def_166 .def_23))) (let ((.def_259 (or A14 A4))) (let ((.def_260 (not .def_259))) (let ((.def_261 (and .def_260 .def_258))) (let ((.def_262 (or .def_261 .def_257))) (let ((.def_263 (and .def_262 .def_252))) (let ((.def_264 (and .def_263 .def_241))) (let ((.def_265 (not .def_264))) (let ((.def_266 (or A12 .def_194))) (let ((.def_267 (or .def_23 .def_79))) (let ((.def_268 (or .def_267 .def_266))) (let ((.def_269 (and A13 .def_49))) (let ((.def_270 (not .def_269))) (let ((.def_271 (and .def_206 .def_156))) (let ((.def_272 (not .def_271))) (let ((.def_273 (and .def_272 .def_270))) (let ((.def_274 (not .def_273))) (let ((.def_275 (and .def_274 .def_268))) (let ((.def_276 (not .def_275))) (let ((.def_277 (and .def_156 .def_206))) (let ((.def_278 (not .def_277))) (let ((.def_279 (and A7 A7))) (let ((.def_280 (not .def_279))) (let ((.def_281 (and .def_280 .def_278))) (let ((.def_282 (or A3 .def_125))) (let ((.def_283 (not .def_282))) (let ((.def_284 (or .def_22 .def_46))) (let ((.def_285 (not .def_284))) (let ((.def_286 (or .def_285 .def_283))) (let ((.def_287 (not .def_286))) (let ((.def_288 (or .def_287 .def_281))) (let ((.def_289 (and .def_288 .def_276))) (let ((.def_290 (and .def_27 A20))) (let ((.def_291 (or .def_3 A12))) (let ((.def_292 (or .def_291 .def_290))) (let ((.def_293 (and A24 .def_22))) (let ((.def_294 (not .def_293))) (let ((.def_295 (and .def_65 .def_79))) (let ((.def_296 (not .def_295))) (let ((.def_297 (and .def_296 .def_294))) (let ((.def_298 (not .def_297))) (let ((.def_299 (or .def_298 .def_292))) (let ((.def_300 (and A4 A18))) (let ((.def_301 (not .def_300))) (let ((.def_302 (or A9 .def_27))) (let ((.def_303 (or .def_302 .def_301))) (let ((.def_304 (not .def_303))) (let ((.def_305 (and A3 A16))) (let ((.def_306 (and A12 .def_26))) (let ((.def_307 (or .def_306 .def_305))) (let ((.def_308 (= .def_307 .def_304))) (let ((.def_309 (or .def_308 .def_299))) (let ((.def_310 (and .def_309 .def_289))) (let ((.def_311 (not .def_310))) (let ((.def_312 (or .def_311 .def_265))) (let ((.def_313 (not .def_312))) (let ((.def_314 (and A1 A15))) (let ((.def_315 (and .def_22 .def_9))) (let ((.def_316 (not .def_315))) (let ((.def_317 (or .def_316 .def_314))) (let ((.def_318 (or A9 .def_26))) (let ((.def_319 (or A10 A13))) (let ((.def_320 (not .def_319))) (let ((.def_321 (and .def_320 .def_318))) (let ((.def_322 (not .def_321))) (let ((.def_323 (or .def_322 .def_317))) (let ((.def_324 (not .def_323))) (let ((.def_325 (and .def_156 A9))) (let ((.def_326 (or A1 A7))) (let ((.def_327 (not .def_326))) (let ((.def_328 (and .def_327 .def_325))) (let ((.def_329 (not .def_328))) (let ((.def_330 (or A7 .def_79))) (let ((.def_331 (and A8 A14))) (let ((.def_332 (not .def_331))) (let ((.def_333 (or .def_332 .def_330))) (let ((.def_334 (not .def_333))) (let ((.def_335 (and .def_334 .def_329))) (let ((.def_336 (not .def_335))) (let ((.def_337 (or .def_336 .def_324))) (let ((.def_338 (not .def_337))) (let ((.def_339 (and A10 A12))) (let ((.def_340 (and A16 .def_65))) (let ((.def_341 (or .def_340 .def_339))) (let ((.def_342 (not .def_341))) (let ((.def_343 (and A5 A10))) (let ((.def_344 (not .def_343))) (let ((.def_345 (and A6 .def_46))) (let ((.def_346 (and .def_345 .def_344))) (let ((.def_347 (not .def_346))) (let ((.def_348 (or .def_347 .def_342))) (let ((.def_349 (not .def_348))) (let ((.def_350 (or .def_18 A8))) (let ((.def_351 (not .def_350))) (let ((.def_352 (= A12 .def_23))) (let ((.def_353 (not .def_352))) (let ((.def_354 (and .def_353 .def_351))) (let ((.def_355 (not .def_354))) (let ((.def_356 (and A10 .def_4))) (let ((.def_357 (or .def_27 .def_94))) (let ((.def_358 (not .def_357))) (let ((.def_359 (or .def_358 .def_356))) (let ((.def_360 (= .def_359 .def_355))) (let ((.def_361 (not .def_360))) (let ((.def_362 (or .def_361 .def_349))) (let ((.def_363 (not .def_362))) (let ((.def_364 (and .def_363 .def_338))) (let ((.def_365 (not .def_364))) (let ((.def_366 (or .def_26 A22))) (let ((.def_367 (not .def_366))) (let ((.def_368 (or A8 .def_73))) (let ((.def_369 (and .def_368 .def_367))) (let ((.def_370 (not .def_369))) (let ((.def_371 (or .def_156 A20))) (let ((.def_372 (and .def_65 A6))) (let ((.def_373 (and .def_372 .def_371))) (let ((.def_374 (and .def_373 .def_370))) (let ((.def_375 (not .def_374))) (let ((.def_376 (and A24 A16))) (let ((.def_377 (not .def_376))) (let ((.def_378 (or A9 .def_4))) (let ((.def_379 (or .def_378 .def_377))) (let ((.def_380 (not .def_379))) (let ((.def_381 (and .def_46 A20))) (let ((.def_382 (and A6 .def_4))) (let ((.def_383 (or .def_382 .def_381))) (let ((.def_384 (or .def_383 .def_380))) (let ((.def_385 (and .def_384 .def_375))) (let ((.def_386 (not .def_385))) (let ((.def_387 (and A0 A5))) (let ((.def_388 (not .def_387))) (let ((.def_389 (= .def_46 A5))) (let ((.def_390 (not .def_389))) (let ((.def_391 (or .def_390 .def_388))) (let ((.def_392 (not .def_391))) (let ((.def_393 (and A22 A18))) (let ((.def_394 (and .def_156 A19))) (let ((.def_395 (not .def_394))) (let ((.def_396 (and .def_395 .def_393))) (let ((.def_397 (or .def_396 .def_392))) (let ((.def_398 (not .def_397))) (let ((.def_399 (and A6 .def_3))) (let ((.def_400 (or A8 .def_8))) (let ((.def_401 (not .def_400))) (let ((.def_402 (and .def_401 .def_399))) (let ((.def_403 (= A7 A20))) (let ((.def_404 (not .def_403))) (let ((.def_405 (and .def_46 A6))) (let ((.def_406 (or .def_405 .def_404))) (let ((.def_407 (not .def_406))) (let ((.def_408 (and .def_407 .def_402))) (let ((.def_409 (or .def_408 .def_398))) (let ((.def_410 (not .def_409))) (let ((.def_411 (and .def_410 .def_386))) (let ((.def_412 (and .def_411 .def_365))) (let ((.def_413 (and .def_412 .def_313))) (let ((.def_414 (and .def_413 .def_217))) .def_414))))))))))))))))))))))))))))))))))))))))))))))))))))))))))))))))))))))))))))))))))))))))))))))))))))))))))))))))))))))))))))))))))))))))))))))))))))))))))))))))))))))))))))))))))))))))))))))))))))))))))))))))))))))))))))))))))))))))))))))))))))))))))))))))))))))))))))))))))))))))))))))))))))))))))))))))))))))))))))))))))))))))))))))))))))))))))))))))))))))))))))))))))))))))))))))))))))))))))))))))))))))))))))))))
(check-sat)
